NAME : local_10
TYPE : ATSP
DIMENSION : 8
EDGE_WEIGHT_TYPE : EXPLICIT
EDGE_WEIGHT_FORMAT : FULL_MATRIX
EDGE_WEIGHT_SECTION
0 949 10000000 1013 654 10000000 195 815 
0 0 560 10000000 10000000 10000000 819 406 
0 560 0 10000000 10000000 10000000 10000000 516 
0 10000000 10000000 0 355 257 10000000 907 
0 10000000 10000000 355 0 445 816 882 
0 10000000 10000000 257 445 0 10000000 10000000 
0 819 10000000 10000000 816 10000000 0 767 
0 10000000 10000000 10000000 10000000 10000000 10000000 0 
EOF